Total weight: 1235.7112546013188
Route 1: 0 94 92 5 83 82 47 48 7 88 31 69 76 12 26 21 72 73 40 53 18 6 96 99 98 37 97 87 57 2 58 13 95 59 93 60 89 52 1 50 3 77 0 
Route 2: 0 27 28 80 29 34 71 30 63 90 62 11 19 45 84 85 91 42 43 22 74 75 4 54 24 68 0 
Route 3: 0 100 44 14 8 36 49 64 65 35 79 78 33 66 20 32 10 46 17 56 25 55 0 
Route 4: 0 39 67 23 41 15 38 86 16 61 70 51 9 81 0 
